NAME: I22760-n100-k7
COMMENT : (Fake et al, No of trucks: 7, Optimal value: )
TYPE : CVRP
DIMENSION : 100
EDGE_WEIGHT_TYPE : EUC_2D
CAPACITY : 23
NODE_COORD_SECTION
1 414 400
2 497 159
3 315 997
4 308 202
5 302 945
6 463 411
7 245 93
8 410 902
9 192 432
10 321 695
11 784 45
12 791 785
13 377 525
14 337 943
15 79 871
16 826 502
17 158 781
18 685 511
19 554 168
20 84 607
21 782 384
22 95 789
23 965 356
24 383 73
25 850 734
26 265 491
27 539 308
28 931 745
29 388 787
30 904 81
31 271 916
32 77 652
33 238 343
34 193 227
35 68 434
36 247 983
37 958 531
38 238 331
39 828 544
40 515 926
41 913 623
42 359 588
43 458 602
44 622 771
45 48 429
46 829 0
47 876 926
48 1 669
49 379 115
50 266 880
51 952 695
52 739 744
53 784 388
54 82 222
55 133 735
56 161 216
57 851 290
58 778 110
59 245 975
60 513 250
61 949 237
62 44 34
63 582 399
64 152 764
65 222 672
66 274 721
67 26 504
68 863 937
69 396 532
70 194 411
71 158 158
72 983 521
73 983 207
74 450 892
75 278 340
76 230 736
77 643 754
78 76 100
79 950 486
80 658 189
81 513 69
82 57 203
83 462 534
84 991 757
85 829 818
86 115 545
87 169 866
88 926 724
89 789 653
90 976 150
91 595 834
92 849 130
93 664 204
94 928 168
95 782 632
96 146 239
97 914 943
98 963 724
99 859 464
100 895 807
DEMAND_SECTION
1 0
2 2
3 1
4 1
5 2
6 1
7 1
8 2
9 1
10 2
11 1
12 2
13 2
14 1
15 1
16 2
17 1
18 1
19 1
20 1
21 2
22 2
23 1
24 1
25 1
26 2
27 2
28 1
29 1
30 2
31 2
32 2
33 2
34 2
35 1
36 2
37 1
38 2
39 2
40 1
41 2
42 1
43 2
44 1
45 2
46 1
47 2
48 2
49 2
50 2
51 1
52 1
53 2
54 1
55 1
56 2
57 2
58 2
59 1
60 1
61 1
62 1
63 2
64 1
65 1
66 2
67 2
68 2
69 2
70 1
71 1
72 1
73 2
74 2
75 1
76 1
77 2
78 1
79 2
80 1
81 1
82 2
83 2
84 1
85 1
86 1
87 1
88 1
89 1
90 1
91 1
92 1
93 1
94 1
95 2
96 1
97 2
98 2
99 2
100 1
DEPOT_SECTION
 1
 -1
 EOF 